certificates/rado_a9_c240_N28.cnf
c Rad2 upper bound instance: x1 + 9*x2 - x3 = 240, interval [1,28]
p cnf 28 158
1 4 27 0
-1 -4 -27 0
1 13 28 0
-1 -13 -28 0
2 5 27 0
-2 -5 -27 0
2 14 28 0
-2 -14 -28 0
3 6 27 0
-3 -6 -27 0
3 15 28 0
-3 -15 -28 0
4 7 27 0
-4 -7 -27 0
4 16 28 0
-4 -16 -28 0
5 8 27 0
-5 -8 -27 0
5 17 28 0
-5 -17 -28 0
6 9 27 0
-6 -9 -27 0
6 18 28 0
-6 -18 -28 0
1 7 26 0
-1 -7 -26 0
7 10 27 0
-7 -10 -27 0
7 19 28 0
-7 -19 -28 0
2 8 26 0
-2 -8 -26 0
8 11 27 0
-8 -11 -27 0
8 20 28 0
-8 -20 -28 0
3 9 26 0
-3 -9 -26 0
9 12 27 0
-9 -12 -27 0
9 21 28 0
-9 -21 -28 0
4 10 26 0
-4 -10 -26 0
10 13 27 0
-10 -13 -27 0
10 22 28 0
-10 -22 -28 0
5 11 26 0
-5 -11 -26 0
11 14 27 0
-11 -14 -27 0
11 23 28 0
-11 -23 -28 0
6 12 26 0
-6 -12 -26 0
12 15 27 0
-12 -15 -27 0
12 24 28 0
-12 -24 -28 0
7 13 26 0
-7 -13 -26 0
13 16 27 0
-13 -16 -27 0
13 25 28 0
-13 -25 -28 0
8 14 26 0
-8 -14 -26 0
14 17 27 0
-14 -17 -27 0
14 26 28 0
-14 -26 -28 0
9 15 26 0
-9 -15 -26 0
15 18 27 0
-15 -18 -27 0
15 27 28 0
-15 -27 -28 0
1 16 25 0
-1 -16 -25 0
10 16 26 0
-10 -16 -26 0
16 19 27 0
-16 -19 -27 0
16 28 0
-16 -28 0
2 17 25 0
-2 -17 -25 0
11 17 26 0
-11 -17 -26 0
17 20 27 0
-17 -20 -27 0
3 18 25 0
-3 -18 -25 0
12 18 26 0
-12 -18 -26 0
18 21 27 0
-18 -21 -27 0
4 19 25 0
-4 -19 -25 0
13 19 26 0
-13 -19 -26 0
19 22 27 0
-19 -22 -27 0
5 20 25 0
-5 -20 -25 0
14 20 26 0
-14 -20 -26 0
20 23 27 0
-20 -23 -27 0
6 21 25 0
-6 -21 -25 0
15 21 26 0
-15 -21 -26 0
21 24 27 0
-21 -24 -27 0
7 22 25 0
-7 -22 -25 0
16 22 26 0
-16 -22 -26 0
22 25 27 0
-22 -25 -27 0
8 23 25 0
-8 -23 -25 0
17 23 26 0
-17 -23 -26 0
23 26 27 0
-23 -26 -27 0
9 24 25 0
-9 -24 -25 0
18 24 26 0
-18 -24 -26 0
24 27 0
-24 -27 0
1 24 25 0
-1 -24 -25 0
10 25 0
-10 -25 0
19 25 26 0
-19 -25 -26 0
25 27 28 0
-25 -27 -28 0
2 24 26 0
-2 -24 -26 0
11 25 26 0
-11 -25 -26 0
20 26 0
-20 -26 0
3 24 27 0
-3 -24 -27 0
12 25 27 0
-12 -25 -27 0
21 26 27 0
-21 -26 -27 0
4 24 28 0
-4 -24 -28 0
22 26 28 0
-22 -26 -28 0
