certificates/rado_a9_c240_N28.drat
-27 -28 0
d -25 -27 -28 0
-28 0
16 0
27 0
-24 0
-13 0
-19 0
4 0
12 0
1 0
25 0
7 0
26 0
0
